\ Model _copy
\ LP format - for model browsing. Use MPS format to capture full model detail.
Minimize
 
Subject To
 a0: x_0_0 + x_0_1 + x_0_2 = 1
 b0: x_0_0 + 2 x_1_0 + 3 x_2_0 + 4 x_3_0 + 5 x_4_0 + 7 x_5_0 + 8 x_6_0
   + 15 x_7_0 = 45
 b2: x_0_2 + 2 x_1_2 + 3 x_2_2 + 4 x_3_2 + 5 x_4_2 + 7 x_5_2 + 8 x_6_2
   + 15 x_7_2 = 45
Bounds
Binaries
 x_0_0 x_1_0 x_2_0 x_3_0 x_4_0 x_5_0 x_6_0 x_7_0 x_0_1 x_0_2 x_1_2 x_2_2
 x_3_2 x_4_2 x_5_2 x_6_2 x_7_2
End
